p cnf 19 9
e 1 2 0
a 3 4 5 6 0
e 7 8 0
a 9 0
e 10 11 0
a 12 0
e 13 14 15 0
a 16 0
e 17 0
a 18 19 0
1 9 -11 0
-15 18 -17 0
19 -16 -13 6 0
-18 9 -19 -8 10 0
-16 3 2 19 0
-13 -2 10 7 0
12 9 -10 4 0
5 -16 15 18 0
-4 1 18 19 0
